p cnf 412 698
-65 -59 6 76 0
-65 -59 6 -76 0
-13 -42 64 77 0
-13 -42 64 -77 0
47 21 -48 78 0
47 21 -48 -78 0
-75 -47 -67 79 0
-75 -47 -67 -79 0
-47 13 -57 80 0
-47 13 -57 -80 0
45 10 12 81 0
45 10 12 -81 0
-60 -27 62 82 0
-60 -27 62 -82 0
70 -14 -48 83 0
70 -14 -48 -83 0
-3 44 40 84 0
-3 44 40 -84 0
30 47 -59 85 0
30 47 -59 -85 0
-56 2 72 86 0
-56 2 72 -86 0
16 -5 61 87 0
16 -5 61 -87 0
36 49 40 88 0
36 49 40 -88 0
56 -8 -6 89 0
56 -8 -6 -89 0
32 20 -11 90 0
32 20 -11 -90 0
-3 10 -44 91 0
-3 10 -44 -91 0
35 18 -69 92 0
35 18 -69 -92 0
47 -55 21 93 0
47 -55 21 -93 0
-48 -44 32 94 0
-48 -44 32 -94 0
17 20 -41 95 0
17 20 -41 -95 0
-70 38 6 96 0
-70 38 6 -96 0
26 72 -25 97 0
26 72 -25 -97 0
67 -63 24 98 0
67 -63 24 -98 0
-36 47 -55 99 0
-36 47 -55 -99 0
-14 -42 62 100 0
-14 -42 62 -100 0
-50 63 59 101 0
-50 63 59 -101 0
62 -52 17 102 0
62 -52 17 -102 0
55 -62 19 103 0
55 -62 19 -103 0
-15 34 64 104 0
-15 34 64 -104 0
36 41 -54 105 0
36 41 -54 -105 0
43 -70 -35 106 0
43 -70 -35 -106 0
-46 37 62 107 0
-46 37 62 -107 0
28 20 -38 108 0
28 20 -38 -108 0
-45 52 -44 109 0
-45 52 -44 -109 0
75 -43 35 110 0
75 -43 35 -110 0
64 58 42 111 0
64 58 42 -111 0
-61 -70 64 112 0
-61 -70 64 -112 0
66 70 -41 113 0
66 70 -41 -113 0
-8 70 34 114 0
-8 70 34 -114 0
-32 -33 -4 115 0
-32 -33 -4 -115 0
-73 -43 49 116 0
-73 -43 49 -116 0
-66 43 -1 117 0
-66 43 -1 -117 0
-1 5 -37 118 0
-1 5 -37 -118 0
-24 41 57 119 0
-24 41 57 -119 0
19 -47 49 120 0
19 -47 49 -120 0
-13 -35 -71 121 0
-13 -35 -71 -121 0
-68 -64 21 122 0
-68 -64 21 -122 0
-35 44 -40 123 0
-35 44 -40 -123 0
-59 34 -38 124 0
-59 34 -38 -124 0
56 -34 -26 125 0
56 -34 -26 -125 0
-56 -68 23 126 0
-56 -68 23 -126 0
-29 -47 -9 127 0
-29 -47 -9 -127 0
-9 -75 21 128 0
-9 -75 21 -128 0
45 55 63 129 0
45 55 63 -129 0
60 75 37 130 0
60 75 37 -130 0
73 -9 -10 131 0
73 -9 -10 -131 0
-41 -13 -35 132 0
-41 -13 -35 -132 0
-26 -70 -74 133 0
-26 -70 -74 -133 0
-1 12 -49 134 0
-1 12 -49 -134 0
67 4 -28 135 0
67 4 -28 -135 0
11 28 -54 136 0
11 28 -54 -136 0
-71 25 2 137 0
-71 25 2 -137 0
-70 -5 -75 138 0
-70 -5 -75 -138 0
41 58 42 139 0
41 58 42 -139 0
-21 5 -26 140 0
-21 5 -26 -140 0
-18 -29 73 141 0
-18 -29 73 -141 0
-38 56 -34 142 0
-38 56 -34 -142 0
-40 -20 49 143 0
-40 -20 49 -143 0
-32 -26 3 144 0
-32 -26 3 -144 0
-33 -75 9 145 0
-33 -75 9 -145 0
28 -65 -55 146 0
28 -65 -55 -146 0
-35 -23 -20 147 0
-35 -23 -20 -147 0
37 -26 -64 148 0
37 -26 -64 -148 0
30 22 -75 149 0
30 22 -75 -149 0
-37 53 54 150 0
-37 53 54 -150 0
-71 64 17 151 0
-71 64 17 -151 0
14 -49 25 152 0
14 -49 25 -152 0
-2 3 37 153 0
-2 3 37 -153 0
-39 -43 -48 154 0
-39 -43 -48 -154 0
-18 36 46 155 0
-18 36 46 -155 0
-23 -1 70 156 0
-23 -1 70 -156 0
-41 64 58 157 0
-41 64 58 -157 0
-1 22 -27 158 0
-1 22 -27 -158 0
65 51 7 159 0
65 51 7 -159 0
31 -43 1 160 0
31 -43 1 -160 0
50 48 2 161 0
50 48 2 -161 0
-55 11 68 162 0
-55 11 68 -162 0
46 -53 43 163 0
46 -53 43 -163 0
73 -39 13 164 0
73 -39 13 -164 0
-65 8 61 165 0
-65 8 61 -165 0
-73 10 6 166 0
-73 10 6 -166 0
10 -3 -39 167 0
10 -3 -39 -167 0
-19 18 47 168 0
-19 18 47 -168 0
68 -23 -74 169 0
68 -23 -74 -169 0
24 -48 59 170 0
24 -48 59 -170 0
-43 36 -28 171 0
-43 36 -28 -171 0
-1 -44 53 172 0
-1 -44 53 -172 0
33 -64 -41 173 0
33 -64 -41 -173 0
-39 -42 -15 174 0
-39 -42 -15 -174 0
-14 71 44 175 0
-14 71 44 -175 0
-16 47 42 176 0
-16 47 42 -176 0
-18 -21 45 177 0
-18 -21 45 -177 0
-19 18 -4 178 0
-19 18 -4 -178 0
-51 61 -21 179 0
-51 61 -21 -179 0
62 -38 31 180 0
62 -38 31 -180 0
50 -39 4 181 0
50 -39 4 -181 0
36 -5 -48 182 0
36 -5 -48 -182 0
49 7 -67 183 0
49 7 -67 -183 0
-9 -15 -65 184 0
-9 -15 -65 -184 0
61 75 44 185 0
61 75 44 -185 0
-52 10 -73 186 0
-52 10 -73 -186 0
59 63 -60 187 0
59 63 -60 -187 0
19 67 56 188 0
19 67 56 -188 0
-55 34 -24 189 0
-55 34 -24 -189 0
-27 17 61 190 0
-27 17 61 -190 0
29 -9 -30 191 0
29 -9 -30 -191 0
-7 48 -44 192 0
-7 48 -44 -192 0
40 23 53 193 0
40 23 53 -193 0
-29 -13 -36 194 0
-29 -13 -36 -194 0
38 8 -9 195 0
38 8 -9 -195 0
-44 -31 -50 196 0
-44 -31 -50 -196 0
55 -63 11 197 0
55 -63 11 -197 0
-10 -19 -36 198 0
-10 -19 -36 -198 0
65 -67 -5 199 0
65 -67 -5 -199 0
17 7 -70 200 0
17 7 -70 -200 0
-66 -74 27 201 0
-66 -74 27 -201 0
3 -51 -72 202 0
3 -51 -72 -202 0
-26 -9 68 203 0
-26 -9 68 -203 0
-55 60 -23 204 0
-55 60 -23 -204 0
-46 -26 73 205 0
-46 -26 73 -205 0
-37 41 27 206 0
-37 41 27 -206 0
-72 8 -73 207 0
-72 8 -73 -207 0
43 47 5 208 0
43 47 5 -208 0
66 -12 -61 209 0
66 -12 -61 -209 0
5 42 -20 210 0
5 42 -20 -210 0
-31 43 -36 211 0
-31 43 -36 -211 0
4 28 -49 212 0
4 28 -49 -212 0
73 63 -40 213 0
73 63 -40 -213 0
-2 14 9 214 0
-2 14 9 -214 0
57 32 -47 215 0
57 32 -47 -215 0
72 -66 -21 216 0
72 -66 -21 -216 0
-73 -51 5 217 0
-73 -51 5 -217 0
40 -49 14 218 0
40 -49 14 -218 0
1 -52 50 219 0
1 -52 50 -219 0
-15 20 -33 220 0
-15 20 -33 -220 0
-39 -18 57 221 0
-39 -18 57 -221 0
-37 47 -4 222 0
-37 47 -4 -222 0
67 -57 29 223 0
67 -57 29 -223 0
41 -62 56 224 0
41 -62 56 -224 0
-16 -11 -39 225 0
-16 -11 -39 -225 0
40 35 -3 226 0
40 35 -3 -226 0
-50 56 -24 227 0
-50 56 -24 -227 0
-34 14 23 228 0
-34 14 23 -228 0
-66 -59 -70 229 0
-66 -59 -70 -229 0
65 -14 -1 230 0
65 -14 -1 -230 0
13 -26 -31 231 0
13 -26 -31 -231 0
67 22 -29 232 0
67 22 -29 -232 0
55 34 64 233 0
55 34 64 -233 0
-12 -66 -7 234 0
-12 -66 -7 -234 0
-47 -2 -73 235 0
-47 -2 -73 -235 0
13 -14 -24 236 0
13 -14 -24 -236 0
19 7 27 237 0
19 7 27 -237 0
13 -41 -66 238 0
13 -41 -66 -238 0
27 -73 -63 239 0
27 -73 -63 -239 0
29 26 -52 240 0
29 26 -52 -240 0
-20 -37 -53 241 0
-20 -37 -53 -241 0
-42 -7 -45 242 0
-42 -7 -45 -242 0
-70 -52 18 243 0
-70 -52 18 -243 0
-58 -18 -1 244 0
-58 -18 -1 -244 0
-21 4 6 245 0
-21 4 6 -245 0
37 50 -68 246 0
37 50 -68 -246 0
53 -60 64 247 0
53 -60 64 -247 0
74 48 -4 248 0
74 48 -4 -248 0
19 -16 -13 249 0
19 -16 -13 -249 0
75 6 65 250 0
75 6 65 -250 0
35 -40 68 251 0
35 -40 68 -251 0
-9 -31 -70 252 0
-9 -31 -70 -252 0
24 -51 -20 253 0
24 -51 -20 -253 0
22 10 -67 254 0
22 10 -67 -254 0
21 28 -58 255 0
21 28 -58 -255 0
30 67 25 256 0
30 67 25 -256 0
33 27 34 257 0
33 27 34 -257 0
75 -47 -61 258 0
75 -47 -61 -258 0
-71 -21 61 259 0
-71 -21 61 -259 0
40 75 -42 260 0
40 75 -42 -260 0
7 -40 65 261 0
7 -40 65 -261 0
-34 -19 -35 262 0
-34 -19 -35 -262 0
-2 -46 29 263 0
-2 -46 29 -263 0
39 -59 48 264 0
39 -59 48 -264 0
38 10 27 265 0
38 10 27 -265 0
-2 -38 -1 266 0
-2 -38 -1 -266 0
75 27 -6 267 0
75 27 -6 -267 0
-18 20 23 268 0
-18 20 23 -268 0
-74 -45 -70 269 0
-74 -45 -70 -269 0
72 32 51 270 0
72 32 51 -270 0
-60 37 45 271 0
-60 37 45 -271 0
-47 -27 64 272 0
-47 -27 64 -272 0
-29 -4 25 273 0
-29 -4 25 -273 0
-62 48 -2 274 0
-62 48 -2 -274 0
-23 15 -27 275 0
-23 15 -27 -275 0
-5 22 -23 276 0
-5 22 -23 -276 0
-11 53 -2 277 0
-11 53 -2 -277 0
6 59 -66 278 0
6 59 -66 -278 0
-62 21 12 279 0
-62 21 12 -279 0
59 24 44 280 0
59 24 44 -280 0
71 -26 28 281 0
71 -26 28 -281 0
-68 11 -12 282 0
-68 11 -12 -282 0
-56 -15 -25 283 0
-56 -15 -25 -283 0
10 32 4 284 0
10 32 4 -284 0
50 3 -30 285 0
50 3 -30 -285 0
-24 8 2 286 0
-24 8 2 -286 0
10 18 12 287 0
10 18 12 -287 0
63 67 36 288 0
63 67 36 -288 0
-71 -47 -38 289 0
-71 -47 -38 -289 0
5 -42 -61 290 0
5 -42 -61 -290 0
10 -8 6 291 0
10 -8 6 -291 0
12 68 -49 292 0
12 68 -49 -292 0
44 2 52 293 0
44 2 52 -293 0
-11 10 -61 294 0
-11 10 -61 -294 0
31 -14 20 295 0
31 -14 20 -295 0
14 -57 -12 296 0
14 -57 -12 -296 0
50 5 63 297 0
50 5 63 -297 0
-9 -71 4 298 0
-9 -71 4 -298 0
-75 -10 27 299 0
-75 -10 27 -299 0
-38 14 50 300 0
-38 14 50 -300 0
-61 -42 -4 301 0
-61 -42 -4 -301 0
-69 -35 1 302 0
-69 -35 1 -302 0
-58 -67 23 303 0
-58 -67 23 -303 0
4 52 32 304 0
4 52 32 -304 0
-66 -73 -28 305 0
-66 -73 -28 -305 0
-62 -41 24 306 0
-62 -41 24 -306 0
-62 32 44 307 0
-62 32 44 -307 0
14 -71 -19 308 0
14 -71 -19 -308 0
58 60 47 309 0
58 60 47 -309 0
-30 -6 -5 310 0
-30 -6 -5 -310 0
-40 32 -25 311 0
-40 32 -25 -311 0
-72 -8 19 312 0
-72 -8 19 -312 0
67 -8 27 313 0
67 -8 27 -313 0
-6 -27 67 314 0
-6 -27 67 -314 0
-60 -71 -12 315 0
-60 -71 -12 -315 0
-49 18 14 316 0
-49 18 14 -316 0
61 -2 43 317 0
61 -2 43 -317 0
-36 -34 45 318 0
-36 -34 45 -318 0
-69 49 39 319 0
-69 49 39 -319 0
67 -11 -1 320 0
67 -11 -1 -320 0
-60 -49 71 321 0
-60 -49 71 -321 0
33 -3 1 322 0
33 -3 1 -322 0
-73 -3 6 323 0
-73 -3 6 -323 0
-54 -20 -58 324 0
-54 -20 -58 -324 0
31 -56 -63 325 0
31 -56 -63 -325 0
19 29 -38 326 0
19 29 -38 -326 0
-49 -34 41 327 0
-49 -34 41 -327 0
-11 -69 17 328 0
-11 -69 17 -328 0
-32 -2 17 329 0
-32 -2 17 -329 0
-27 28 67 330 0
-27 28 67 -330 0
4 -38 71 331 0
4 -38 71 -331 0
-68 -71 75 332 0
-68 -71 75 -332 0
-52 60 19 333 0
-52 60 19 -333 0
-28 -69 -2 334 0
-28 -69 -2 -334 0
-48 16 1 335 0
-48 16 1 -335 0
-74 5 47 336 0
-74 5 47 -336 0
29 -17 -6 337 0
29 -17 -6 -337 0
-36 34 57 338 0
-36 34 57 -338 0
-55 53 13 339 0
-55 53 13 -339 0
30 70 18 340 0
30 70 18 -340 0
40 34 -24 341 0
40 34 -24 -341 0
20 56 -63 342 0
20 56 -63 -342 0
22 44 4 343 0
22 44 4 -343 0
21 -2 7 344 0
21 -2 7 -344 0
-35 -12 -23 345 0
-35 -12 -23 -345 0
72 7 -16 346 0
72 7 -16 -346 0
-67 -37 24 347 0
-67 -37 24 -347 0
25 8 75 348 0
25 8 75 -348 0
-57 -31 24 349 0
-57 -31 24 -349 0
-17 24 -19 350 0
-17 24 -19 -350 0
21 73 67 351 0
21 73 67 -351 0
4 -10 45 352 0
4 -10 45 -352 0
-58 -14 -38 353 0
-58 -14 -38 -353 0
5 24 -3 354 0
5 24 -3 -354 0
-35 -28 15 355 0
-35 -28 15 -355 0
38 -12 13 356 0
38 -12 13 -356 0
37 51 40 357 0
37 51 40 -357 0
-36 -60 43 358 0
-36 -60 43 -358 0
-46 -32 -48 359 0
-46 -32 -48 -359 0
34 -71 -53 360 0
34 -71 -53 -360 0
49 -73 6 361 0
49 -73 6 -361 0
-40 20 1 362 0
-40 20 1 -362 0
7 -5 71 363 0
7 -5 71 -363 0
50 18 37 364 0
50 18 37 -364 0
61 -50 -75 365 0
61 -50 -75 -365 0
30 35 58 366 0
30 35 58 -366 0
-71 -3 -47 367 0
-71 -3 -47 -367 0
24 -54 -73 368 0
24 -54 -73 -368 0
-25 -33 61 369 0
-25 -33 61 -369 0
-66 40 52 370 0
-66 40 52 -370 0
50 -32 73 371 0
50 -32 73 -371 0
59 -62 37 372 0
59 -62 37 -372 0
23 6 -63 373 0
23 6 -63 -373 0
-64 50 -4 374 0
-64 50 -4 -374 0
52 27 24 375 0
52 27 24 -375 0
66 -57 63 376 0
66 -57 63 -376 0
7 34 -59 377 0
7 34 -59 -377 0
59 -21 56 378 0
59 -21 56 -378 0
-66 -21 31 379 0
-66 -21 31 -379 0
-16 8 -38 380 0
-16 8 -38 -380 0
35 14 45 381 0
35 14 45 -381 0
44 42 -51 382 0
44 42 -51 -382 0
20 -62 -12 383 0
20 -62 -12 -383 0
-28 56 -4 384 0
-28 56 -4 -384 0
73 36 68 385 0
73 36 68 -385 0
-23 -40 -30 386 0
-23 -40 -30 -386 0
-9 -30 33 387 0
-9 -30 33 -387 0
-50 2 22 388 0
-50 2 22 -388 0
-44 30 67 389 0
-44 30 67 -389 0
32 -10 -47 390 0
32 -10 -47 -390 0
-41 -68 16 391 0
-41 -68 16 -391 0
61 -67 32 392 0
61 -67 32 -392 0
-53 26 16 393 0
-53 26 16 -393 0
10 56 -48 394 0
10 56 -48 -394 0
-12 60 -71 395 0
-12 60 -71 -395 0
-36 -50 33 396 0
-36 -50 33 -396 0
54 -30 -8 397 0
54 -30 -8 -397 0
-23 25 10 398 0
-23 25 10 -398 0
57 34 3 399 0
57 34 3 -399 0
15 46 16 400 0
15 46 16 -400 0
401 402 403 404 0
401 402 403 -404 0
401 402 -403 404 0
401 402 -403 -404 0
401 -402 403 404 0
401 -402 403 -404 0
401 -402 -403 404 0
401 -402 -403 -404 0
-401 402 403 404 0
-401 402 403 -404 0
-401 402 -403 404 0
-401 402 -403 -404 0
-401 -402 403 404 0
-401 -402 403 -404 0
-401 -402 -403 404 0
-401 -402 -403 -404 0
405 406 407 408 0
405 406 407 -408 0
405 406 -407 408 0
405 406 -407 -408 0
405 -406 407 408 0
405 -406 407 -408 0
405 -406 -407 408 0
405 -406 -407 -408 0
-405 406 407 408 0
-405 406 407 -408 0
-405 406 -407 408 0
-405 406 -407 -408 0
-405 -406 407 408 0
-405 -406 407 -408 0
-405 -406 -407 408 0
-405 -406 -407 -408 0
409 410 411 412 0
409 410 411 -412 0
409 410 -411 412 0
409 410 -411 -412 0
409 -410 411 412 0
409 -410 411 -412 0
409 -410 -411 412 0
409 -410 -411 -412 0
-409 410 411 412 0
-409 410 411 -412 0
-409 410 -411 412 0
-409 410 -411 -412 0
-409 -410 411 412 0
-409 -410 411 -412 0
-409 -410 -411 412 0
-409 -410 -411 -412 0
